c instance by G2
c solution = 1011101010111
c Known solution cost is 726 
p cnf 13 30
w 71 70 75 4 59 88 93 98 62 5 48 49 4
-3 -8 -5 0
10 11 -5 0
-1 12 -7 0
-13 -6 8 0
11 8 -3 0
-3 -4 5 0
-12 3 6 0
-7 -10 -13 0
13 7 12 0
-5 4 -6 0
-5 1 8 0
6 4 -1 0
-7 -9 -10 0
-9 -8 5 0
-12 -10 -3 0
2 -1 7 0
8 7 12 0
1 7 -10 0
-7 4 -6 0
8 11 7 0
9 6 -5 0
-5 -4 -8 0
-1 -2 10 0
-7 -2 -10 0
7 13 -4 0
-3 12 -7 0
2 -7 13 0
9 -4 2 0
12 2 -11 0
-11 -8 -9 0
